204400
874029
438785
232058
472701
943057
884460
250830
405900
364296
730293
635902
413407
959767
534762
612348
738528
474307
679878
327083
383169
847849
128235
372031
340228
539296
75323
791811
926406
126211
896445
908446
207412
302206
272703
574700
854485
802797
306715
810421
248457
295271
430408
131827
712921
268338
226099
524031
691906
636375
341235
371607
969207
387066
942026
988408
233401
361864
283084
731345
591699
341292
375129
264165
816878
630211
926288
462420
468042
897194
670279
960713
928509
790963
325393
34827
39239
649425
888760
996325
710783
664362
971317
687191
247759
735853
499249
956708
265516
782269
382097
684784
529755
103086
558570
654892
985323
822503
827761
158455
